qbf_easy_train/easy_1378_UNSAT.qdimacs
p cnf 26 67
a 10 5 13 0
e 1 2 3 4 6 7 8 9 11 12 14 15 16 17 18 19 20 21 22 23 24 25 26 0
1 -2 -3 0
-1 2 -3 0
1 2 3 0
-1 -2 3 0
5 3 0
5 -4 0
-3 4 -5 0
5 -6 -7 0
-5 6 -7 0
5 6 7 0
-5 -6 7 0
8 -9 -10 0
-8 9 -10 0
8 9 10 0
-8 -9 10 0
11 -3 0
11 3 0
-12 11 0
-12 9 0
-11 -9 12 0
-14 6 0
-14 -3 0
-6 3 14 0
-13 -14 -15 0
13 14 -15 0
-13 14 15 0
13 -14 15 0
-12 15 -16 0
12 -15 -16 0
-12 -15 16 0
12 15 16 0
17 -10 0
17 16 0
10 -16 -17 0
18 7 0
18 -17 0
-7 17 -18 0
20 -19 0
20 -1 0
19 1 -20 0
18 -20 -21 0
-18 20 -21 0
18 20 21 0
-18 -20 21 0
-22 11 0
-22 4 0
-11 -4 22 0
-23 -22 0
-23 -11 0
22 11 23 0
-24 -14 0
-24 -6 0
14 6 24 0
25 23 0
25 24 0
-23 -24 -25 0
-21 -25 -26 0
21 25 -26 0
-21 25 26 0
21 -25 26 0
4 -15 14 0
19 11 -18 23 9 -13 -25 0
-19 11 3 0
-26 -11 7 -15 -25 20 0
-17 11 7 -20 19 -5 0
-6 25 -23 -5 -20 9 0
26 0
