sat_easy_train/easy_1378_UNSAT.dimacs
p cnf 92 286
-1 -2 -3 0
1 2 -3 0
-1 2 3 0
1 -2 3 0
5 3 0
5 -4 0
-3 4 -5 0
8 -1 0
8 6 0
1 -6 -8 0
-9 -7 0
-9 -8 0
7 8 9 0
6 9 -10 0
-6 -9 -10 0
6 -9 10 0
-6 9 10 0
11 -5 0
11 -10 0
5 10 -11 0
6 -12 -13 0
-6 12 -13 0
6 12 13 0
-6 -12 13 0
-15 -13 0
-15 14 0
13 -14 15 0
17 12 0
17 4 0
-12 -4 -17 0
-18 -16 0
-18 17 0
16 -17 18 0
19 9 0
19 18 0
-9 -18 -19 0
-21 -20 0
-21 12 0
20 -12 21 0
22 7 0
22 21 0
-7 -21 -22 0
24 -16 0
24 23 0
16 -23 -24 0
-25 22 0
-25 -24 0
-22 24 25 0
19 -25 -26 0
-19 25 -26 0
19 25 26 0
-19 -25 26 0
-27 -15 0
-27 -26 0
15 26 27 0
-29 17 0
-29 -28 0
-17 28 29 0
-30 -16 -31 0
30 16 -31 0
-30 16 31 0
30 -16 31 0
32 -29 0
32 -31 0
29 31 -32 0
-27 -32 -33 0
27 32 -33 0
-27 32 33 0
27 -32 33 0
34 11 0
34 -33 0
-11 33 -34 0
35 -24 -36 0
-35 24 -36 0
35 24 36 0
-35 -24 36 0
-37 23 0
-37 7 0
-23 -7 37 0
-38 -36 0
-38 37 0
36 -37 38 0
39 -3 0
39 -23 0
3 23 -39 0
-40 4 0
-40 -23 0
-4 23 40 0
42 -41 0
42 -35 0
41 35 -42 0
43 -40 0
43 -42 0
40 42 -43 0
-44 -39 0
-44 -43 0
39 43 44 0
-35 45 -46 0
35 -45 -46 0
-35 -45 46 0
35 45 46 0
-47 -44 0
-47 -46 0
44 46 47 0
48 -38 0
48 47 0
38 -47 -48 0
-49 17 0
-49 -7 0
-17 7 49 0
-50 -17 0
-50 -49 0
17 49 50 0
9 50 -51 0
-9 -50 -51 0
9 -50 51 0
-9 50 51 0
52 -21 0
52 -2 0
21 2 -52 0
41 -52 -53 0
-41 52 -53 0
41 52 53 0
-41 -52 53 0
-54 12 0
-54 16 0
-12 -16 54 0
-14 55 0
14 55 0
-55 -41 -56 0
55 41 -56 0
-55 41 56 0
55 -41 56 0
-54 56 -57 0
54 -56 -57 0
-54 -56 57 0
54 56 57 0
14 -3 -58 0
-14 3 -58 0
14 3 58 0
-14 -3 58 0
59 -23 0
59 -58 0
23 58 -59 0
60 57 0
60 -59 0
-57 59 -60 0
16 -45 -61 0
-16 45 -61 0
16 45 61 0
-16 -45 61 0
-6 61 -62 0
6 -61 -62 0
-6 -61 62 0
6 61 62 0
-60 -62 -63 0
60 62 -63 0
-60 62 63 0
60 -62 63 0
-64 53 0
-64 63 0
-53 -63 64 0
-65 -51 0
-65 -64 0
51 64 65 0
-48 65 -66 0
48 -65 -66 0
-48 -65 66 0
48 65 66 0
-34 66 -67 0
34 -66 -67 0
-34 -66 67 0
34 66 67 0
-68 58 0
-68 -40 0
-58 40 68 0
1 69 0
-1 69 0
-70 68 0
-70 -69 0
-68 69 70 0
71 -2 0
71 14 0
2 -14 -71 0
-72 -4 0
-72 3 0
4 -3 72 0
73 58 0
73 -16 0
-58 16 -73 0
-74 -72 0
-74 73 0
72 -73 74 0
-76 -35 0
-76 75 0
35 -75 76 0
-77 -74 0
-77 -76 0
74 76 77 0
78 71 0
78 77 0
-71 -77 -78 0
79 30 0
79 -50 0
-30 50 -79 0
-80 -79 0
-80 24 0
79 -24 80 0
21 42 -81 0
-21 -42 -81 0
21 -42 81 0
-21 42 81 0
82 30 0
82 -81 0
-30 81 -82 0
83 80 0
83 82 0
-80 -82 -83 0
-84 78 0
-84 -83 0
-78 83 84 0
70 84 -85 0
-70 -84 -85 0
70 -84 85 0
-70 84 85 0
86 67 0
86 85 0
-67 -85 -86 0
-87 -42 0
-87 41 0
42 -41 87 0
72 73 -88 0
-72 -73 -88 0
72 -73 88 0
-72 73 88 0
89 -87 0
89 -88 0
87 88 -89 0
90 16 0
90 -17 0
-16 17 -90 0
-89 -90 -91 0
89 90 -91 0
-89 90 91 0
89 -90 91 0
92 86 0
92 91 0
-86 -91 -92 0
87 -34 7 90 -48 0
43 30 -24 -71 12 0
73 44 -77 -58 0
-87 -80 -38 -13 59 0
-15 43 -53 0
-34 -35 0
13 -35 -46 43 -81 0
-70 44 -7 47 11 0
85 28 -56 43 6 -91 0
7 57 -6 81 -12 67 0
72 -14 -32 -54 0
-79 4 -28 72 -52 -61 0
92 50 51 -61 89 0
-72 63 30 -61 54 0
88 39 0
-17 21 0
8 -77 -47 0
6 -40 28 0
17 88 0
-14 12 8 -55 92 0
-65 49 44 -75 0
-34 -82 0
-51 -11 -78 0
40 51 0
-21 -13 0
87 59 0
32 2 50 -66 -88 65 0
-92 -39 91 -38 -52 -48 0
-18 -10 24 -12 0
32 -92 11 0
-87 -29 -27 -74 0
84 -76 0
31 -10 -4 70 49 0
43 6 0
-75 -88 44 22 -14 0
-85 -14 3 47 0
74 60 25 92 0
92 0
